152348	889
152073	1000
147863	1006
147633	1036
147533	1043
147313	1051
143048	1055
142888	1056
137303	1074
133617	1093
126963	1099
126866	1107
125945	1120
125725	1131
121460	1132
121300	1133
115335	1152
101860	1172
101655	1183
101310	1187
91470	1193
